100 81225

 5 517
510 214
556 537
825 836
505 616
917 634
629 542
841 928
149 932
856 513
676 306
171 460
190 187
927 637
33 501
463 104
314 198
666 480
840 888
361 567
427 682
982 340
784 572
898 448
439 660
235 51
412 494
717 296
110 327
271 961
47 183
433 312
828 510
25 864
676 417
933 744
237 857
694 311
976 393
963 357
235 833
101 45
149 309
703 680
726 566
675 437
337 540
170 198
581 431
484 502
729 902
442 261
339 868
294 645
212 21
266 725
95 36
347 998
37 873
187 298
747 258
326 382
669 357
717 373
582 319
959 622
22 165
739 846
959 813
863 477
168 853
327 248
173 18
602 620
713 458
318 568
540 900
691 970
422 635
855 765
772 84
65 161
622 734
236 432
558 446
957 309
880 608
405 186
292 627
235 174
533 64
115 331
550 232
2 889
324 55
220 177
972 549
728 482
350 46
93 8
